c random formula
p cnf 10 35
-3 4 1 0
-7 8 2 0
2 -8 -7 0
-5 1 -6 0
10 8 -7 0
-3 -6 4 0
1 -9 -5 0
-8 -1 4 0
-9 -4 7 0
9 -3 -5 0
-3 8 10 0
-7 4 9 0
10 9 4 0
7 9 2 0
2 5 -9 0
4 2 5 0
-4 -3 -8 0
-1 -8 -2 0
-5 8 2 0
5 -7 10 0
1 4 -5 0
1 -7 -3 0
2 5 10 0
4 -5 9 0
6 -4 2 0
4 6 10 0
-7 4 -8 0
3 -9 -10 0
-1 -3 9 0
-6 8 9 0
2 10 6 0
-9 -2 -7 0
2 -6 -7 0
3 -6 4 0
1 -9 -4 0
